* ENCODING=ISO-8859-1
NAME          CPLEX
ROWS
 N  obj1    
 G  c1      
 G  c2      
 G  c3      
 G  c4      
 G  c5      
 G  c6      
 G  c7      
 G  c8      
 G  c9      
 G  c10     
 G  c11     
 G  c12     
 G  c13     
 G  c14     
 G  c15     
 G  c16     
 G  c17     
 G  c18     
 G  c19     
 G  c20     
 G  c21     
 G  c22     
 G  c23     
 G  c24     
 G  c25     
 G  c26     
 G  c27     
 G  c28     
 G  c29     
 G  c30     
COLUMNS
    MARK0000  'MARKER'                 'INTORG'
    x1        obj1                            1
    x1        c3                            589
    x1        c11                           848
    x1        c23                           371
    x1        c27                           930
    x2        obj1                            1
    x2        c4                            973
    x2        c5                            646
    x2        c7                            210
    x2        c8                            499
    x2        c21                           804
    x2        c27                           573
    x2        c28                           371
    x2        c30                           975
    x3        obj1                            1
    x3        c19                           123
    x3        c25                           548
    x3        c26                           958
    x3        c29                           912
    x4        obj1                            1
    x4        c5                            680
    x4        c22                           713
    x4        c27                           372
    x5        obj1                            1
    x5        c13                           841
    x5        c17                           628
    x5        c27                           841
    x6        obj1                            1
    x6        c5                            464
    x6        c7                            468
    x6        c19                           195
    x7        obj1                            1
    x7        c3                            234
    x7        c24                           768
    x8        obj1                            1
    x8        c12                           378
    x8        c19                           911
    x8        c28                           471
    x8        c29                           207
    x8        c30                           173
    x9        obj1                            1
    x9        c2                            933
    x9        c28                           872
    x10       obj1                            1
    x10       c1                            608
    x10       c10                           363
    x10       c18                           416
    x10       c24                           808
    x11       obj1                            1
    x11       c16                           256
    x12       obj1                            1
    x12       c20                           380
    x12       c26                           690
    x13       obj1                            1
    x13       c7                            797
    x13       c10                           491
    x13       c17                           946
    x13       c23                           500
    x14       obj1                            1
    x14       c3                            273
    x14       c6                            623
    x14       c7                            599
    x14       c19                           909
    x14       c26                           215
    x15       obj1                            1
    x15       c9                            179
    x15       c16                           579
    x15       c23                           188
    x16       obj1                            1
    x16       c4                            631
    x16       c11                           537
    x16       c20                           510
    x16       c29                           784
    x17       obj1                            1
    x17       c2                            956
    x17       c24                           656
    x17       c30                           952
    x18       obj1                            1
    x18       c6                            680
    x18       c12                           506
    x18       c15                           779
    x18       c21                           893
    x19       obj1                            1
    x19       c8                            945
    x20       obj1                            1
    x20       c14                           493
    x20       c28                           658
    x21       obj1                            1
    x21       c2                            693
    x21       c12                           838
    x21       c18                           859
    x22       obj1                            1
    x22       c2                            248
    x22       c4                            396
    x22       c5                            401
    x22       c14                           761
    x22       c18                           870
    x23       obj1                            1
    x23       c19                           328
    x23       c20                           368
    x24       obj1                            1
    x24       c3                            850
    x24       c16                           329
    x24       c29                           313
    x25       obj1                            1
    x25       c4                            576
    x25       c14                           490
    x25       c23                           991
    x26       obj1                            1
    x26       c22                           747
    x27       obj1                            1
    x27       c9                            319
    x27       c11                           258
    x27       c13                           348
    x28       obj1                            1
    x28       c2                            411
    x28       c6                           1000
    x28       c10                           805
    x28       c27                           597
    x29       obj1                            1
    x29       c15                           432
    x30       obj1                            1
    x30       c10                           544
    x30       c15                           268
    x30       c26                           572
    x30       c29                           640
    x31       obj1                            1
    x31       c1                            454
    x31       c6                            436
    x31       c29                           542
    x32       obj1                            1
    x32       c6                            710
    x32       c10                           421
    x32       c14                           702
    x32       c29                           509
    x33       obj1                            1
    x33       c4                            463
    x33       c21                           552
    x33       c30                           760
    x34       obj1                            1
    x34       c6                            985
    x34       c8                            486
    x34       c15                           974
    x35       obj1                            1
    x35       c22                           937
    x35       c23                           990
    x35       c27                           255
    x35       c28                           274
    x35       c30                           417
    x36       obj1                            1
    x36       c21                           114
    x36       c24                           792
    x37       obj1                            1
    x37       c1                            881
    x37       c7                            230
    x37       c11                           447
    x37       c21                           886
    x38       obj1                            1
    x38       c7                            739
    x38       c30                           469
    x39       obj1                            1
    x39       c6                            260
    x39       c15                           781
    x39       c17                           735
    x39       c21                           744
    x39       c25                           309
    x39       c30                           412
    x40       obj1                            1
    x40       c9                            234
    x40       c10                           883
    x40       c13                           282
    x40       c23                           507
    x40       c30                           169
    x41       obj1                            1
    x41       c13                           620
    x41       c15                           770
    x41       c28                           908
    x42       obj1                            1
    x42       c7                            710
    x43       obj1                            1
    x44       obj1                            1
    x44       c16                           344
    x44       c26                           790
    x44       c30                           861
    x45       obj1                            1
    x45       c1                            358
    x45       c23                           332
    x45       c28                           118
    x46       obj1                            1
    x47       obj1                            1
    x47       c8                            471
    x47       c16                           266
    x47       c18                           110
    x48       obj1                            1
    x48       c1                            320
    x48       c12                           825
    x49       obj1                            1
    x49       c3                            265
    x49       c7                            385
    x49       c8                            831
    x49       c12                           321
    x49       c25                           179
    x49       c27                           981
    x50       obj1                            1
    x50       c1                            729
    x50       c3                            607
    x50       c4                            971
    x50       c14                           805
    x50       c29                           870
    x51       obj1                            1
    x51       c5                            538
    x51       c6                            974
    x51       c10                           413
    x51       c24                           223
    x51       c25                           356
    x52       obj1                            1
    x52       c6                            562
    x52       c7                            165
    x52       c9                            150
    x52       c11                           382
    x52       c25                           914
    x53       obj1                            1
    x54       obj1                            1
    x54       c12                           448
    x54       c20                           940
    x54       c29                           818
    x55       obj1                            1
    x55       c24                           898
    x55       c28                           872
    x56       obj1                            1
    x56       c9                            656
    x56       c12                           334
    x56       c21                           473
    x56       c23                           441
    x56       c26                           640
    x57       obj1                            1
    x57       c8                            518
    x57       c10                           952
    x58       obj1                            1
    x58       c1                            698
    x59       obj1                            1
    x59       c9                            963
    x59       c10                           108
    x59       c11                           541
    x59       c19                           570
    x60       obj1                            1
    x60       c16                           662
    x60       c21                           728
    MARK0001  'MARKER'                 'INTEND'
RHS
    rhs       c1                           2024
    rhs       c2                           1621
    rhs       c3                           1409
    rhs       c4                           2005
    rhs       c5                           1365
    rhs       c6                           3115
    rhs       c7                           2152
    rhs       c8                           1875
    rhs       c9                           1251
    rhs       c10                          2490
    rhs       c11                          1507
    rhs       c12                          1825
    rhs       c13                          1046
    rhs       c14                          1626
    rhs       c15                          2002
    rhs       c16                          1218
    rhs       c17                          1155
    rhs       c18                          1128
    rhs       c19                          1518
    rhs       c20                          1099
    rhs       c21                          2597
    rhs       c22                          1199
    rhs       c23                          2160
    rhs       c24                          2073
    rhs       c25                          1153
    rhs       c26                          1933
    rhs       c27                          2275
    rhs       c28                          2272
    rhs       c29                          2798
    rhs       c30                          2594
BOUNDS
 LI bnd       x1        0
 LI bnd       x2        0
 LI bnd       x3        0
 LI bnd       x4        0
 LI bnd       x5        0
 LI bnd       x6        0
 LI bnd       x7        0
 LI bnd       x8        0
 LI bnd       x9        0
 LI bnd       x10       0
 LI bnd       x11       0
 LI bnd       x12       0
 LI bnd       x13       0
 LI bnd       x14       0
 LI bnd       x15       0
 LI bnd       x16       0
 LI bnd       x17       0
 LI bnd       x18       0
 LI bnd       x19       0
 LI bnd       x20       0
 LI bnd       x21       0
 LI bnd       x22       0
 LI bnd       x23       0
 LI bnd       x24       0
 LI bnd       x25       0
 LI bnd       x26       0
 LI bnd       x27       0
 LI bnd       x28       0
 LI bnd       x29       0
 LI bnd       x30       0
 LI bnd       x31       0
 LI bnd       x32       0
 LI bnd       x33       0
 LI bnd       x34       0
 LI bnd       x35       0
 LI bnd       x36       0
 LI bnd       x37       0
 LI bnd       x38       0
 LI bnd       x39       0
 LI bnd       x40       0
 LI bnd       x41       0
 LI bnd       x42       0
 LI bnd       x43       0
 LI bnd       x44       0
 LI bnd       x45       0
 LI bnd       x46       0
 LI bnd       x47       0
 LI bnd       x48       0
 LI bnd       x49       0
 LI bnd       x50       0
 LI bnd       x51       0
 LI bnd       x52       0
 LI bnd       x53       0
 LI bnd       x54       0
 LI bnd       x55       0
 LI bnd       x56       0
 LI bnd       x57       0
 LI bnd       x58       0
 LI bnd       x59       0
 LI bnd       x60       0
ENDATA
